10 10 3

0 163 220 84 330 394 62 346 86 420 
408 0 264 378 70 355 432 212 173 366 
218 458 0 440 486 310 383 145 151 435 
380 339 486 0 282 208 205 72 488 305 
85 334 97 455 0 448 311 332 468 166 
470 387 496 92 311 0 453 482 297 262 
120 392 364 54 478 409 0 246 259 116 
157 281 310 169 316 143 216 0 478 297 
478 65 472 350 242 358 345 284 0 168 
297 472 415 266 92 62 129 303 490 0 

233 0 5
233 1 0
233 2 5
233 3 0
233 4 7
233 5 6
233 6 5
233 7 1
233 8 9
233 9 4

